%nprocshared=12
%mem=16GB
# oniom(external='Gau_ANI.py 1ccx':external='Gau_ANI.py 2x') 
nosymm geom=connectivity force punch=(coord,derivatives)

Title Card Required

0 1 0 1 0 1
 C                     8.76400000   -5.65300000   -3.62000000 L
 H                     8.45500000   -5.33700000   -2.63600000 L
 C                     8.04400000   -5.21800000   -4.71200000 L
 H                     7.15900000   -4.60400000   -4.58000000 L
 C                     8.46500000   -5.53500000   -5.98200000 L
 Cl                    7.52300000   -4.95200000   -7.30800000 L
 C                     9.60500000   -6.30100000   -6.18800000 L
 H                     9.91500000   -6.54900000   -7.19800000 L
 C                    10.32200000   -6.75400000   -5.08900000 L
 H                    11.20900000   -7.36600000   -5.20200000 L
 C                     9.89000000   -6.41700000   -3.82200000 L H 12
 C                    10.64300000   -6.85700000   -2.63500000 H
 N                    11.89100000   -7.16500000   -2.81000000 H
 C                     9.84400000   -6.91400000   -1.39100000 H
 C                     8.56800000   -7.42300000   -1.52500000 H
 H                     8.23900000   -7.84600000   -2.46400000 H
 C                     7.73500000   -7.47000000   -0.41600000 H
 H                     6.74500000   -7.91000000   -0.49800000 H
 C                     8.17000000   -6.96100000    0.79300000 H
 H                     7.51900000   -7.00200000    1.66200000 H
 C                     9.42900000   -6.41000000    0.90900000 H
 H                     9.76800000   -6.02100000    1.86400000 H
 C                    10.28000000   -6.36600000   -0.19300000 H
 C                    11.64800000   -5.87000000   -0.05900000 H
 C                    12.28100000   -4.76200000    0.56200000 H
 C                    11.71700000   -3.70000000    1.41800000 H
 H                    11.41700000   -4.08900000    2.39800000 H
 H                    10.82800000   -3.25300000    0.96100000 H
 H                    12.46000000   -2.91600000    1.57800000 H
 N                    13.57900000   -4.70200000    0.21700000 H
 O                    13.82900000   -5.80900000   -0.58400000 H
 C                    12.66500000   -6.46900000   -0.76500000 H
 C                    12.64200000   -7.63200000   -1.65100000 H
 H                    12.12700000   -8.47700000   -1.17200000 H
 C                    14.03900000   -8.05200000   -2.07400000 H
 H                    14.57600000   -8.50800000   -1.23500000 H
 H                    14.61400000   -7.18200000   -2.40000000 H
 C                    13.89000000   -9.04700000   -3.18500000 H
 O                    12.91400000   -9.76300000   -3.33600000 H
 N                    14.98300000   -9.10000000   -3.99200000 H
 H                    14.96200000   -9.72000000   -4.78800000 H
 H                    15.72300000   -8.42000000   -3.93500000 H

 1 2 1.0 3 2.0 11 2.0
 2
 3 4 1.0 5 2.0
 4
 5 6 1.0 7 1.5
 6
 7 8 1.0 9 1.5
 8
 9 10 1.0 11 2.0
 10
 11 12 1.0
 12 13 2.0 14 1.0
 13 33 1.0
 14 15 2.0 23 1.5
 15 16 1.0 17 1.5
 16
 17 18 1.0 19 2.0
 18
 19 20 1.0 21 2.0
 20
 21 22 1.0 23 1.5
 22
 23 24 1.0
 24 25 1.5 32 2.0
 25 26 1.0 30 1.5
 26 27 1.0 28 1.0 29 1.0
 27
 28
 29
 30 31 1.0
 31 32 1.0
 32 33 1.0
 33 34 1.0 35 1.0
 34
 35 36 1.0 37 1.0 38 1.0
 36
 37
 38 39 2.0 40 1.5
 39
 40 41 1.0 42 1.0
 41
 42

