! B3LYP/G D3ZERO def2-svp RIJCOSX EnGrad 
!KDIIS

%scf
MaxIter 1000
end

%pal nprocs 24 end

* xyz -1 1
 N                 -2.74200000    4.06900000   13.97700000
 C                 -1.70700000    3.21300000   13.35800000
 C                 -0.42400000    4.02600000   13.18200000
 O                 -0.46000000    5.27000000   13.33800000
 C                 -2.18900000    2.64400000   11.98700000
 C                 -2.30000000    3.66700000   10.85700000
 C                 -3.43600000    4.37700000   10.61600000
 C                 -1.22900000    3.87600000    9.97400000
 C                 -3.53700000    5.30500000    9.58100000
 C                 -1.33800000    4.86500000    8.96300000
 C                 -2.45700000    5.52500000    8.76900000
 H                 -1.52800000    2.44800000   13.92600000
 H                 -1.56000000    1.96300000   11.70000000
 H                 -3.06800000    2.25200000   12.11000000
 H                 -4.17400000    4.23700000   11.16400000
 H                 -0.45200000    3.37000000   10.05100000
 H                 -4.33100000    5.77000000    9.44400000
 H                 -0.60200000    5.05100000    8.42600000
 H                 -2.51600000    6.14400000    8.07800000
 H                 -3.59200000    3.53700000   14.09600000
 H                 -2.41800000    4.39100000   14.87800000
 H                 -2.92300000    4.86400000   13.38100000
 N                  0.71200000    3.35800000   12.97400000
 C                  2.01800000    3.98700000   12.90700000
 C                  2.33000000    4.77200000   14.19100000
 O                  2.43700000    6.00900000   14.20300000
 C                  2.12700000    4.89300000   11.66000000
 H                  0.74500000    2.50600000   12.86600000
 H                  2.68400000    3.28600000   12.83200000
 H                  3.00800000    5.29900000   11.64000000
 H                  1.99400000    4.35300000   10.86500000
 H                  1.44600000    5.58200000   11.70900000
 N                  2.44300000    4.03900000   15.28600000
 C                  2.56100000    4.57300000   16.63000000
 C                  3.69100000    3.94800000   17.38900000
 O                  3.74800000    2.73400000   17.46400000
 C                  1.23700000    4.28700000   17.45800000
 C                  0.02600000    4.91700000   16.97200000
 C                 -1.27300000    4.17700000   17.38400000
 O                 -1.24200000    3.40300000   18.36800000
 O                 -2.30600000    4.35200000   16.70300000
 H                  2.45300000    3.17900000   15.27700000
 H                  2.71700000    5.52700000   16.54700000
 H                  1.08000000    3.33000000   17.45600000
 H                  1.37500000    4.59900000   18.36600000
 H                 -0.02200000    5.81800000   17.32800000
 H                  0.05500000    4.94500000   16.00300000
 N                  7.64300000    4.99900000   16.05900000
 C                  8.14400000    4.55300000   14.70500000
 C                  9.55400000    5.15700000   14.46300000
 O                  9.68800000    6.38400000   14.49600000
 C                  7.19100000    4.90100000   13.55800000
 C                  7.73100000    4.43100000   12.15100000
 C                  5.80700000    4.33900000   13.73500000
 H                  7.60700000    5.85300000   16.15700000
 H                  8.20000000    3.58400000   14.70800000
 H                  7.14000000    5.87000000   13.57900000
 H                  7.03000000    4.54500000   11.49000000
 H                  8.50100000    4.97000000   11.91200000
 H                  7.98500000    3.49700000   12.20600000
 H                  5.25400000    4.62200000   12.98900000
 H                  5.86000000    3.37100000   13.75900000
 H                  5.43500000    4.67100000   14.56700000
 N                 10.56600000    4.30100000   14.31200000
 C                 11.93300000    4.74800000   14.12900000
 C                 12.19600000    5.38600000   12.76100000
 O                 12.39400000    6.60300000   12.65900000
 H                 10.47900000    3.44600000   14.31200000
 H                 12.14400000    5.40400000   14.81200000
 H                 12.52800000    3.98800000   14.22600000
 N                 12.17800000    4.57700000   11.69800000
 C                 12.49300000    4.94700000   10.31000000
 C                 11.53100000    4.28600000    9.31900000
 O                 11.35100000    3.04900000    9.30000000
 C                 13.91900000    4.48500000    9.95700000
 O                 14.19400000    4.75500000    8.63400000
 H                 11.97200000    3.74400000   11.75800000
 H                 12.39300000    5.90900000   10.22700000
 H                 14.55500000    4.95800000   10.51700000
 H                 13.99100000    3.53000000   10.10900000
 H                 14.25300000    5.58500000    8.51700000
 N                 10.91400000    5.14700000    8.49800000
 C                 10.05700000    4.70900000    7.38600000
 C                 10.55200000    5.17000000    5.99200000
 O                 10.55000000    6.37100000    5.67600000
 C                  8.60500000    5.18800000    7.56000000
 C                  7.68100000    4.62800000    6.41500000
 O                  7.66900000    3.42300000    6.14700000
 N                  7.01000000    5.52900000    5.69900000
 H                 10.97900000    6.00200000    8.56800000
 H                 10.12600000    3.74200000    7.40700000
 H                  8.26100000    4.87600000    8.41100000
 H                  8.57900000    6.15800000    7.52700000
 H                  6.49200000    5.27300000    5.06200000
 H                  7.09500000    6.36700000    5.87300000
 N                 10.97900000    4.22900000    5.14800000
 C                 11.33700000    4.48000000    3.74500000
 C                 10.33400000    3.88800000    2.74500000
 O                 10.41800000    4.15000000    1.53200000
 C                 12.73500000    3.90400000    3.44700000
 C                 13.85900000    4.72700000    4.07800000
 C                 15.18400000    4.25300000    3.47400000
 C                 16.24400000    5.25300000    3.74700000
 N                 16.43100000    5.40300000    5.21400000
 H                 11.07500000    3.40400000    5.37100000
 H                 11.36900000    5.43900000    3.60100000
 H                 12.78700000    3.00200000    3.80100000
 H                 12.87400000    3.89200000    2.48700000
 H                 13.73600000    5.66900000    3.88100000
 H                 13.87700000    4.58900000    5.03800000
 H                 15.44200000    3.40800000    3.87300000
 H                 15.08900000    4.15300000    2.51400000
 H                 17.08100000    4.95900000    3.35400000
 H                 15.98800000    6.11200000    3.37500000
 H                 15.72900000    5.82000000    5.56900000
 H                 16.51300000    4.60200000    5.59400000
 H                 17.16400000    5.87900000    5.38100000
 N                  9.33200000    3.17400000    3.23200000
 C                  8.31500000    2.49500000    2.43200000
 C                  6.97400000    3.17000000    2.54000000
 O                  6.90900000    4.40000000    2.69500000
 H                  9.20600000    3.05700000    4.07500000
 H                  8.58500000    2.49300000    1.50100000
 H                  8.22400000    1.57800000    2.73600000
 N                  5.91500000    2.34400000    2.52600000
 C                  4.54000000    2.78500000    2.62200000
 C                  3.86300000    2.21300000    3.86600000
 O                  3.88600000    1.00700000    4.07700000
 C                  3.76200000    2.41200000    1.34800000
 H                  5.98800000    1.49000000    2.45900000
 H                  4.52700000    3.75000000    2.72500000
 H                  2.84300000    2.70800000    1.44100000
 H                  4.17400000    2.85000000    0.58700000
 H                  3.79000000    1.45000000    1.23100000
 N                  3.19200000    3.05300000    4.64500000
 C                  2.33200000    2.61800000    5.75100000
 C                  0.98600000    3.29400000    5.52000000
 O                  0.89100000    4.52600000    5.63900000
 C                  2.89000000    2.91800000    7.18500000
 C                  4.34700000    2.45800000    7.40600000
 C                  1.97600000    2.32700000    8.24900000
 C                  5.01200000    2.82600000    8.74600000
 H                  3.21800000    3.90800000    4.55100000
 H                  2.23300000    1.65400000    5.70800000
 H                  2.90300000    3.88500000    7.26200000
 H                  4.36700000    1.49100000    7.33900000
 H                  4.89200000    2.85100000    6.70500000
 H                  2.29700000    2.59400000    9.12500000
 H                  1.07500000    2.66000000    8.11200000
 H                  1.98700000    1.36000000    8.17400000
 H                  5.95100000    2.58900000    8.70800000
 H                  4.91800000    3.78000000    8.89300000
 H                  4.57500000    2.33600000    9.46000000
 N                 -0.04200000    2.52000000    5.15000000
 C                 -1.28700000    3.05200000    4.60700000
 C                 -2.48600000    2.45100000    5.31300000
 O                 -2.59500000    1.22100000    5.37600000
 C                 -1.44300000    2.82100000    3.09500000
 C                 -0.17300000    3.08400000    2.27200000
 C                 -2.65500000    3.52700000    2.52400000
 C                  0.20800000    4.43200000    2.04900000
 H                 -0.03400000    1.66200000    5.20700000
 H                 -1.26600000    4.00500000    4.79000000
 H                 -1.59600000    1.86600000    3.01200000
 H                  0.56900000    2.65800000    2.72800000
 H                 -0.29900000    2.68300000    1.39700000
 H                 -2.62300000    3.47700000    1.55600000
 H                 -3.45700000    3.09200000    2.85200000
 H                 -2.64200000    4.45500000    2.80800000
 H                  1.08600000    4.44900000    1.63800000
 H                 -0.44000000    4.85100000    1.46200000
 H                  0.23200000    4.89800000    2.90000000
 N                 -3.35600000    3.29600000    5.89900000
 C                 -4.58800000    2.83900000    6.52800000
 C                 -5.79800000    3.36300000    5.76900000
 O                 -5.95800000    4.57100000    5.64400000
 H                 -3.24600000    4.14700000    5.94000000
 H                 -4.61500000    1.86900000    6.53200000
 H                 -4.62700000    3.15900000    7.44300000
 N                 -6.60900000    2.47000000    5.22200000
 C                 -7.84000000    2.86700000    4.57100000
 C                 -9.11000000    2.36100000    5.31000000
 O                 -9.02800000    1.51600000    6.22300000
 C                 -7.88600000    2.27800000    3.15200000
 C                 -6.80300000    2.65100000    2.16000000
 C                 -5.75300000    1.58000000    2.18500000
 C                 -7.39900000    2.78800000    0.79800000
 O                -10.25400000    2.77500000    5.03000000
 H                 -6.46500000    1.62200000    5.21700000
 H                 -7.85600000    3.83600000    4.55600000
 H                 -7.85600000    1.31300000    3.23800000
 H                 -8.72700000    2.55000000    2.75300000
 H                 -6.39300000    3.50000000    2.38800000
 H                 -5.00600000    1.85600000    1.63100000
 H                 -5.45600000    1.45000000    3.09900000
 H                 -6.13300000    0.75700000    1.84000000
 H                 -6.68700000    2.92200000    0.15400000
 H                 -7.89000000    1.97900000    0.58600000
 H                 -7.99900000    3.55000000    0.79100000
 N                  4.52300000    4.79700000   18.01700000
 C                  5.62800000    4.37500000   18.94800000
 C                  5.37700000    4.99600000   20.31400000
 O                  4.69600000    6.06000000   20.36700000
 C                  6.99700000    4.83200000   18.35200000
 C                  7.29600000    4.12300000   16.99500000
 O                  7.44500000    2.92800000   16.96400000
 O                  5.86400000    4.42900000   21.31300000
 H                  4.42800000    5.79300000   17.87700000
 H                  5.62300000    3.28900000   19.04200000
 H                  7.79400000    4.60900000   19.06100000
 H                  6.98500000    5.91200000   18.20200000
 O                 13.80200000    7.02500000    7.26700000
 H                 14.42300000    7.66700000    7.90900000
 H                 14.45000000    6.38300000    6.65200000
 O                  5.74000000    5.18200000   23.90700000
 H                  6.39300000    5.83700000   24.50300000
 H                  5.14800000    4.54300000   24.57900000
 O                 11.72600000    6.35800000    0.40100000
 H                 12.34400000    6.99200000    1.05300000
 H                 12.25300000    6.18400000   -0.54900000
 O                 14.53800000    6.59900000    0.93800000
 H                 15.15100000    7.23600000    1.59300000
 H                 15.11900000    6.32200000    0.04600000
*
