%mem=10GB
%nprocshared=1
# oniom(external='Gau_Mlatom.py':external='Gau_ANI.py 2x') 
nosymm force punch=(coord,derivatives) 

Title Card Required

0 1 0 1 0 1
 C                0    5.75327651   11.60972689   23.55913449 H
 N                0    1.06028273   11.12432855   24.03760489 L
 O                0    4.23436767   14.97428866   25.39337240 H
 C                0    6.61812152   12.63058730   23.85033039 H
 N                0    2.23634037   10.00075606   25.57311579 L
 O                0    6.15380861   10.46337326   22.97717673 H
 C                0    6.16595162   13.78606509   24.49120638 H
 N                0   -1.65136332   10.66230512   26.51756481 L
 C                0    4.81682743   13.87918379   24.82323402 H
 N                0    0.47173500    9.79779741   27.22750464 L
 C                0    3.93580264   12.85163662   24.49063642 H
 N                0   -2.02811508   11.49420210   24.40238072 L
 C                0    4.37183283   11.70511819   23.85464090 H
 C                0    5.01422573   16.01740674   25.93796746 H
 C                0    3.44899719   10.56398008   23.50450645 H
 C                0    2.24363648   10.52153473   24.36690682 L H 15
 C                0    0.20418420   10.84620904   25.08715590 L
 C                0    0.95835268   10.17994103   26.02573710 L
 C                0   -1.19354984   10.98972891   25.31238315 L
 C                0   -0.80923817   10.07401470   27.36234518 L
 C                0    7.53562013   10.14353781   22.95525176 H
 F                0   -1.31108975    9.74970675   28.55524445 L
 H                0    0.81450853   11.41615469   23.09826283 L
 H                0    7.66320571   12.54401431   23.59485161 H
 H                0    6.84571574   14.59188470   24.71668047 H
 H                0    2.89484871   12.98424490   24.73944830 H
 H                0   -3.03107629   11.50934895   24.59525104 L
 H                0   -1.74321732   11.59028237   23.43818948 L
 H                0    5.51194350   16.56440207   25.13372653 H
 H                0    4.31887833   16.67795397   26.44000923 H
 H                0    5.76173507   15.64919506   26.63832716 H
 H                0    3.97943994    9.61660498   23.61216894 H
 H                0    3.14513094   10.62930921   22.45350149 H
 H                0    7.97980061   10.19040124   23.94827163 H
 H                0    7.59730061    9.12034591   22.59701231 H
 H                0    8.07353755   10.80582633   22.27220342 H

