%mem=10GB
%nprocshared=1
# oniom(external='Gau_Mlatom.py':external='Gau_ANI.py 2x') 
nosymm force punch=(coord,derivatives) 

Title Card Required

0 1 0 1 0 1
 C                0    5.75806899   11.60474502   23.54581151 H
 N                0    1.05247192   11.12323088   24.03851810 L
 O                0    4.23547874   14.96469444   25.39998522 H
 C                0    6.62089757   12.62884810   23.83684550 H
 N                0    2.23238942    9.98804988   25.56769260 L
 O                0    6.15583310   10.45303542   22.97720598 H
 C                0    6.16612436   13.78280521   24.48412126 H
 N                0   -1.64922561   10.67079482   26.52707999 L
 C                0    4.81538879   13.87996509   24.81457125 H
 N                0    0.48132018    9.77209553   27.23013447 L
 C                0    3.93530686   12.84802775   24.48503117 H
 N                0   -2.02987946   11.52292290   24.40657518 L
 C                0    4.37681905   11.70379012   23.84732980 H
 C                0    5.01156678   16.01670180   25.92841247 H
 C                0    3.44750224   10.56332373   23.50178236 H
 C                0    2.24186487   10.51984173   24.36980200 L H 15
 C                0    0.19652084   10.84704283   25.09053340 L
 C                0    0.95765464   10.17979271   26.02964728 L
 C                0   -1.19589013   10.98813699   25.32249679 L
 C                0   -0.79499147   10.06729813   27.36314784 L
 C                0    7.53635457   10.14152726   22.95402874 H
 F                0   -1.30654269    9.73961326   28.55063055 L
 H                0    0.80882100   11.42697595   23.09991330 L
 H                0    7.67018367   12.54644563   23.58918919 H
 H                0    6.84960938   14.58996512   24.70784844 H
 H                0    2.89320166   12.98257165   24.73344696 H
 H                0   -3.03746939   11.49410641   24.57348097 L
 H                0   -1.76535592   11.57935152   23.43283036 L
 H                0    5.50655702   16.55873409   25.11396232 H
 H                0    4.31098384   16.68037427   26.42675090 H
 H                0    5.76910968   15.65970702   26.62996889 H
 H                0    3.98392487    9.61682331   23.59084527 H
 H                0    3.15081539   10.63207204   22.44879567 H
 H                0    7.98644159   10.19452073   23.94895439 H
 H                0    7.60686421    9.12204445   22.57802341 H
 H                0    8.07921889   10.80394296   22.27362901 H

