%chk=center1.chk
%mem=16gb
%nproc=16
# b3lyp/6-31g(d) nosymm force punch=(coord,derivatives)

center1

0 1
