%chk=testtmp.chk
# hf/sto-3g 
 
gjf for external atom list
 
   0   1
C       -4.440116747913      0.063291139971      0.000000000000
H       -4.083443908080      0.567689329733      0.873651499589
H       -4.083443908080      0.567689329733     -0.873651499589
H       -5.510116747410      0.063304319970      0.000000000000
C       -3.926801028154     -1.388641009347      0.000000000000
H       -4.283473277986     -1.893038989110      0.873651869589
H       -4.283474467986     -1.893039409110     -0.873651139589
C       -1.873486049119     -2.840589668665      0.002815559999
H       -2.230524458951     -3.346810248426     -0.869631749591
H       -2.229793798952     -3.343162868428      0.877666949587
C       -0.333486179843     -2.840609938664      0.002172129999
H        0.023551379989     -2.334372998902      0.874610289589
H        0.022821789989     -2.338052688901     -0.872688339590
C        0.179828819916     -4.292539557982      0.005014959998
H       -0.177213299916     -4.798777207744     -0.867420919592
H       -0.176475219917     -4.795095647745      0.879877699586
H        1.294612840610     -4.292554238386      0.004544455949
H       10.871618926431    -11.552294815881      0.015737612475
C       11.986402954365    -11.552309474569      0.015277459993
H       12.343436114197    -11.046090934807      0.887728089583
H       12.342715334197    -11.049733784805     -0.859570619596
C       12.499717944123    -13.004239153886      0.018092259991
H       12.142684624291    -13.510456853648     -0.854358799598
H       12.143405104291    -13.506815253650      0.892939919580
C       14.039717813399    -13.004259403886      0.017457809992
H       14.396750283232    -12.498041834124      0.889909289582
H       14.396030883232    -12.501682734122     -0.857389429597
C       16.093032662434    -14.456209333203      0.019640359991
H       16.450063192266    -13.949994513441      0.892094229581
H       16.449347682266    -13.953629913440     -0.855204499598
C       16.606347652193    -15.908139022521      0.022450519989
H       16.249317702361    -16.414352742283     -0.850004229600
H       17.676347561689    -15.908153082521      0.022013819989
H       16.250031432360    -16.410719122285      0.897294509578
O       14.553032793158    -14.456189093204      0.020271389990
O       -2.386801028878     -1.388659989347     -0.000001050000
 
 
