%chk=test2center.chk
%mem=16gb
%nproc=8
# oniom(external='GauCenters_list para_list.txt':pm6) nosymm force geom=connectivity

Gau2center

0 1 0 1 0 1
 C                0   -4.44011675    0.06329114    0.00000000 H
 H                0   -4.08344391    0.56768933    0.87365150 H
 H                0   -4.08344391    0.56768933   -0.87365150 H
 H                0   -5.51011675    0.06330432    0.00000000 H
 C                0   -3.92680103   -1.38864101    0.00000000 H
 H                0   -4.28347328   -1.89303899    0.87365187 H
 H                0   -4.28347447   -1.89303941   -0.87365114 H
 C                0   -1.87348605   -2.84058967    0.00281556 H
 H                0   -2.23052446   -3.34681025   -0.86963175 H
 H                0   -2.22979380   -3.34316287    0.87766695 H
 C                0   -0.33348618   -2.84060994    0.00217213 H
 H                0    0.02355138   -2.33437300    0.87461029 H
 H                0    0.02282179   -2.33805269   -0.87268834 H
 C                0    0.17982882   -4.29253956    0.00501496 H
 H                0   -0.17721330   -4.79877721   -0.86742092 H
 H                0   -0.17647522   -4.79509565    0.87987770 H
 C                0    1.71982868   -4.29255984    0.00436499 L H 14
 H                0    2.07686995   -3.78632832    0.87680478 L
 H                0    2.07613294   -3.78999717   -0.87049388 L
 C                0    2.23314367   -5.74448949    0.00719662 L
 H                0    1.87610334   -6.25071978   -0.86524426 L
 H                0    1.87683786   -6.24705296    0.88205440 L
 C                0    3.77314354   -5.74450977    0.00654979 L
 H                0    4.13018302   -5.23828229    0.87899265 L
 H                0    4.12944958   -5.24194304   -0.86830602 L
 C                0    4.28645853   -7.19643942    0.00937575 L
 H                0    3.92942056   -7.70266547   -0.86306857 L
 H                0    3.93015034   -7.69900715    0.88423011 L
 C                0    5.82645839   -7.19645969    0.00873310 L
 H                0    6.18349551   -6.69023556    0.88117887 L
 H                0    6.18276681   -6.69388961   -0.86611982 L
 C                0    6.33977338   -8.64838936    0.01155488 L
 H                0    5.98273715   -9.15461228   -0.86089196 L
 H                0    5.98346345   -9.15096022    0.88640673 L
 C                0    7.87977325   -8.64840962    0.01091529 L
 H                0    8.23680863   -8.14218794    0.88336320 L
 H                0    8.23608341   -8.14583707   -0.86393550 L
 C                0    8.39308824  -10.10033929    0.01373400 L
 H                0    8.03605329  -10.60655992   -0.85871469 L
 H                0    8.03677703  -10.60291246    0.88858401 L
 C                0    9.93308811  -10.10035955    0.01309668 L
 H                0   10.29012221   -9.59413968    0.88554615 L
 H                0   10.28939955   -9.59778519   -0.86175255 L
 C                0   10.44640309  -11.55228923    0.01591313 L H 47
 H                0   10.08936908  -12.05850817   -0.85653692 L
 H                0   10.09009094  -12.05486409    0.89076179 L
 C                0   11.98640296  -11.55230948    0.01527746 H
 H                0   12.34343612  -11.04609094    0.88772809 H
 H                0   12.34271534  -11.04973379   -0.85957062 H
 C                0   12.49971795  -13.00423916    0.01809226 H
 H                0   12.14268463  -13.51045686   -0.85435880 H
 H                0   12.14340511  -13.50681526    0.89293992 H
 C                0   14.03971782  -13.00425941    0.01745781 H
 H                0   14.39675029  -12.49804184    0.88990929 H
 H                0   14.39603089  -12.50168274   -0.85738943 H
 C                0   16.09303267  -14.45620934    0.01964036 H
 H                0   16.45006320  -13.94999452    0.89209423 H
 H                0   16.44934769  -13.95362992   -0.85520450 H
 C                0   16.60634766  -15.90813903    0.02245052 H
 H                0   16.24931771  -16.41435275   -0.85000423 H
 H                0   17.67634757  -15.90815309    0.02201382 H
 H                0   16.25003144  -16.41071913    0.89729451 H
 O                0   14.55303280  -14.45618910    0.02027139 H
 O                0   -2.38680103   -1.38865999   -0.00000105 H

 1 2 1.0 3 1.0 4 1.0 5 1.0
 2
 3
 4
 5 6 1.0 7 1.0 64 1.0
 6
 7
 8 9 1.0 10 1.0 11 1.0 64 1.0
 9
 10
 11 12 1.0 13 1.0 14 1.0
 12
 13
 14 15 1.0 16 1.0 17 1.0
 15
 16
 17 18 1.0 19 1.0 20 1.0
 18
 19
 20 21 1.0 22 1.0 23 1.0
 21
 22
 23 24 1.0 25 1.0 26 1.0
 24
 25
 26 27 1.0 28 1.0 29 1.0
 27
 28
 29 30 1.0 31 1.0 32 1.0
 30
 31
 32 33 1.0 34 1.0 35 1.0
 33
 34
 35 36 1.0 37 1.0 38 1.0
 36
 37
 38 39 1.0 40 1.0 41 1.0
 39
 40
 41 42 1.0 43 1.0 44 1.0
 42
 43
 44 45 1.0 46 1.0 47 1.0
 45
 46
 47 48 1.0 49 1.0 50 1.0
 48
 49
 50 51 1.0 52 1.0 53 1.0
 51
 52
 53 54 1.0 55 1.0 63 1.0
 54
 55
 56 57 1.0 58 1.0 59 1.0 63 1.0
 57
 58
 59 60 1.0 61 1.0 62 1.0
 60
 61
 62
 63
 64

